7
2147483647 37 42 75 13 78 47 
37 2147483647 42 7 79 78 90 
42 42 2147483647 44 12 70 71 
75 7 44 2147483647 100 85 22 
13 79 12 100 2147483647 58 62 
78 78 70 85 58 2147483647 22 
47 90 71 22 62 22 2147483647 
